language Essence 1.3

letting graph be
        function((1, 2) --> red, (1, 3) --> red, (1, 4) --> red, (1, 5) --> red, (1, 6) --> red, (1, 7) --> red,
                 (1, 8) --> red, (1, 9) --> red, (2, 1) --> red, (2, 3) --> red, (2, 4) --> red, (2, 5) --> red,
                 (2, 6) --> blue, (2, 7) --> blue, (2, 8) --> blue, (2, 9) --> blue, (3, 1) --> red, (3, 2) --> red,
                 (3, 4) --> blue, (3, 5) --> blue, (3, 6) --> red, (3, 7) --> red, (3, 8) --> blue, (3, 9) --> blue,
                 (4, 1) --> red, (4, 2) --> red, (4, 3) --> blue, (4, 5) --> blue, (4, 6) --> red, (4, 7) --> blue,
                 (4, 8) --> red, (4, 9) --> blue, (5, 1) --> red, (5, 2) --> red, (5, 3) --> blue, (5, 4) --> blue,
                 (5, 6) --> blue, (5, 7) --> red, (5, 8) --> blue, (5, 9) --> red, (6, 1) --> red, (6, 2) --> blue,
                 (6, 3) --> red, (6, 4) --> red, (6, 5) --> blue, (6, 7) --> blue, (6, 8) --> blue, (6, 9) --> red,
                 (7, 1) --> red, (7, 2) --> blue, (7, 3) --> red, (7, 4) --> blue, (7, 5) --> red, (7, 6) --> blue,
                 (7, 8) --> red, (7, 9) --> blue, (8, 1) --> red, (8, 2) --> blue, (8, 3) --> blue, (8, 4) --> red,
                 (8, 5) --> blue, (8, 6) --> blue, (8, 7) --> red, (8, 9) --> red, (9, 1) --> red, (9, 2) --> blue,
                 (9, 3) --> blue, (9, 4) --> blue, (9, 5) --> red, (9, 6) --> red, (9, 7) --> blue, (9, 8) --> red)
